coords = array2d(1..62, 1..2, [836, 50, 333, 793, 845, 79, 501, 261, 1000, 235,
    167, 698, 732, 333, 761, 728, 583, 718, 418, 592, 777, 721, 236,
    315, 604, 682, 139, 338, 146, 605, 257, 149, 904, 215, 334, 378,
    216, 794, 193, 992, 347, 570, 579, 716, 255, 218, 541, 304, 41,
    614, 756, 790, 914, 268, 169, 554, 940, 172, 934, 655, 562, 905,
    23, 514, 856, 153, 971, 401, 271, 973, 600, 14, 953, 373, 688,
    507, 376, 636, 348, 784, 353, 621, 268, 833, 215, 623, 88, 234,
    738, 796, 391, 532, 679, 927, 282, 144, 174, 39, 122, 842, 792,
    956, 796, 440, 454, 956, 361, 798, 648, 950, 384, 690, 864, 211,
    461, 193, 578, 99, 926, 817, 3, 184, 347, 394]);

n = 62;

